c description: Random 3-CNF over 15 variables and 45 clauses
c generator: CNFgen (0.9.0)
c copyright: (C) 2012-2020 Massimo Lauria <massimo.lauria@uniroma1.it>
c url: https://massimolauria.net/cnfgen
c
p cnf 15 45
4 -5 7 0
1 6 13 0
7 8 13 0
11 12 -13 0
3 12 -13 0
-1 -2 7 0
-4 6 -12 0
6 9 -15 0
-3 -4 7 0
10 -11 -14 0
-1 -8 -15 0
-4 -5 -9 0
9 12 -14 0
3 -9 13 0
-1 8 -15 0
-6 -7 12 0
8 9 13 0
-11 12 -13 0
-4 7 -12 0
-2 -8 -11 0
-9 10 11 0
1 -2 8 0
-9 10 -14 0
4 -11 -12 0
-1 8 12 0
11 -14 -15 0
2 10 15 0
2 6 12 0
3 12 15 0
-9 10 -11 0
5 -11 -13 0
8 10 -15 0
2 5 -7 0
-4 -7 12 0
-1 -9 -15 0
-4 9 -15 0
-4 -10 15 0
1 5 9 0
3 4 -5 0
-1 -2 15 0
4 10 13 0
-1 -2 11 0
2 -9 -10 0
-4 -10 12 0
-2 -3 -11 0